\* FSO_PLACEMENT_PROBLEM *\
Maximize
OBJ: __dummy
Subject To
eqn_10_(0): e_s_0 - x_0 <= 0
eqn_10_(1): e_s_1 - x_1 <= 0
eqn_10_(2): e_s_2 - x_2 <= 0
eqn_10_(3): e_s_3 - x_3 <= 0
eqn_10_(4): e_s_4 - x_4 <= 0
eqn_10_(5): e_s_5 - x_5 <= 0
eqn_10_(6): e_s_6 - x_6 <= 0
eqn_10_(7): e_s_7 - x_7 <= 0
eqn_10_(8): e_s_8 - x_8 <= 0
eqn_10_(9): e_s_9 - x_9 <= 0
eqn_11_(0): b_s_0 - y_0 <= 0
eqn_11_(1): b_s_1 - y_1 <= 0
eqn_11_(2): b_s_2 - y_2 <= 0
eqn_11_(3): b_s_3 - y_3 <= 0
eqn_11_(4): b_s_4 - y_4 <= 0
eqn_11_(5): b_s_5 - y_5 <= 0
eqn_11_(6): b_s_6 - y_6 <= 0
eqn_11_(7): b_s_7 - y_7 <= 0
eqn_11_(8): b_s_8 - y_8 <= 0
eqn_11_(9): b_s_9 - y_9 <= 0
eqn_12_(0): e_wt_0 = 1
eqn_12_(1): e_wt_1 = 1
eqn_12_(2): e_wt_2 = 1
eqn_12_(3): e_wt_3 = 1
eqn_12_(4): e_wt_4 = 1
eqn_12_(5): e_wt_5 = 1
eqn_12_(6): e_wt_6 = 1
eqn_12_(7): e_wt_7 = 1
eqn_12_(8): e_wt_8 = 1
eqn_12_(9): e_wt_9 = 1
eqn_13_L_(0): f_s_0 - 4.65661287525e-10 y_0 >= 0
eqn_13_L_(1): f_s_1 - 4.65661287525e-10 y_1 >= 0
eqn_13_L_(2): f_s_2 - 4.65661287525e-10 y_2 >= 0
eqn_13_L_(3): f_s_3 - 4.65661287525e-10 y_3 >= 0
eqn_13_L_(4): f_s_4 - 4.65661287525e-10 y_4 >= 0
eqn_13_L_(5): f_s_5 - 4.65661287525e-10 y_5 >= 0
eqn_13_L_(6): f_s_6 - 4.65661287525e-10 y_6 >= 0
eqn_13_L_(7): f_s_7 - 4.65661287525e-10 y_7 >= 0
eqn_13_L_(8): f_s_8 - 4.65661287525e-10 y_8 >= 0
eqn_13_L_(9): f_s_9 - 4.65661287525e-10 y_9 >= 0
eqn_13_U_(0): f_s_0 - 2147483647 y_0 <= 0
eqn_13_U_(1): f_s_1 - 2147483647 y_1 <= 0
eqn_13_U_(2): f_s_2 - 2147483647 y_2 <= 0
eqn_13_U_(3): f_s_3 - 2147483647 y_3 <= 0
eqn_13_U_(4): f_s_4 - 2147483647 y_4 <= 0
eqn_13_U_(5): f_s_5 - 2147483647 y_5 <= 0
eqn_13_U_(6): f_s_6 - 2147483647 y_6 <= 0
eqn_13_U_(7): f_s_7 - 2147483647 y_7 <= 0
eqn_13_U_(8): f_s_8 - 2147483647 y_8 <= 0
eqn_13_U_(9): f_s_9 - 2147483647 y_9 <= 0
eqn_14_(0,0): - b_0_0 + f_0_0 <= 0
eqn_14_(0,1): - b_0_1 + f_0_1 <= 0
eqn_14_(0,2): - b_0_2 + f_0_2 <= 0
eqn_14_(0,3): - b_0_3 + f_0_3 <= 0
eqn_14_(0,4): - b_0_4 + f_0_4 <= 0
eqn_14_(0,5): - b_0_5 + f_0_5 <= 0
eqn_14_(0,6): - b_0_6 + f_0_6 <= 0
eqn_14_(0,7): - b_0_7 + f_0_7 <= 0
eqn_14_(0,8): - b_0_8 + f_0_8 <= 0
eqn_14_(0,9): - b_0_9 + f_0_9 <= 0
eqn_14_(1,0): - b_1_0 + f_1_0 <= 0
eqn_14_(1,1): - b_1_1 + f_1_1 <= 0
eqn_14_(1,2): - b_1_2 + f_1_2 <= 0
eqn_14_(1,3): - b_1_3 + f_1_3 <= 0
eqn_14_(1,4): - b_1_4 + f_1_4 <= 0
eqn_14_(1,5): - b_1_5 + f_1_5 <= 0
eqn_14_(1,6): - b_1_6 + f_1_6 <= 0
eqn_14_(1,7): - b_1_7 + f_1_7 <= 0
eqn_14_(1,8): - b_1_8 + f_1_8 <= 0
eqn_14_(1,9): - b_1_9 + f_1_9 <= 0
eqn_14_(2,0): - b_2_0 + f_2_0 <= 0
eqn_14_(2,1): - b_2_1 + f_2_1 <= 0
eqn_14_(2,2): - b_2_2 + f_2_2 <= 0
eqn_14_(2,3): - b_2_3 + f_2_3 <= 0
eqn_14_(2,4): - b_2_4 + f_2_4 <= 0
eqn_14_(2,5): - b_2_5 + f_2_5 <= 0
eqn_14_(2,6): - b_2_6 + f_2_6 <= 0
eqn_14_(2,7): - b_2_7 + f_2_7 <= 0
eqn_14_(2,8): - b_2_8 + f_2_8 <= 0
eqn_14_(2,9): - b_2_9 + f_2_9 <= 0
eqn_14_(3,0): - b_3_0 + f_3_0 <= 0
eqn_14_(3,1): - b_3_1 + f_3_1 <= 0
eqn_14_(3,2): - b_3_2 + f_3_2 <= 0
eqn_14_(3,3): - b_3_3 + f_3_3 <= 0
eqn_14_(3,4): - b_3_4 + f_3_4 <= 0
eqn_14_(3,5): - b_3_5 + f_3_5 <= 0
eqn_14_(3,6): - b_3_6 + f_3_6 <= 0
eqn_14_(3,7): - b_3_7 + f_3_7 <= 0
eqn_14_(3,8): - b_3_8 + f_3_8 <= 0
eqn_14_(3,9): - b_3_9 + f_3_9 <= 0
eqn_14_(4,0): - b_4_0 + f_4_0 <= 0
eqn_14_(4,1): - b_4_1 + f_4_1 <= 0
eqn_14_(4,2): - b_4_2 + f_4_2 <= 0
eqn_14_(4,3): - b_4_3 + f_4_3 <= 0
eqn_14_(4,4): - b_4_4 + f_4_4 <= 0
eqn_14_(4,5): - b_4_5 + f_4_5 <= 0
eqn_14_(4,6): - b_4_6 + f_4_6 <= 0
eqn_14_(4,7): - b_4_7 + f_4_7 <= 0
eqn_14_(4,8): - b_4_8 + f_4_8 <= 0
eqn_14_(4,9): - b_4_9 + f_4_9 <= 0
eqn_14_(5,0): - b_5_0 + f_5_0 <= 0
eqn_14_(5,1): - b_5_1 + f_5_1 <= 0
eqn_14_(5,2): - b_5_2 + f_5_2 <= 0
eqn_14_(5,3): - b_5_3 + f_5_3 <= 0
eqn_14_(5,4): - b_5_4 + f_5_4 <= 0
eqn_14_(5,5): - b_5_5 + f_5_5 <= 0
eqn_14_(5,6): - b_5_6 + f_5_6 <= 0
eqn_14_(5,7): - b_5_7 + f_5_7 <= 0
eqn_14_(5,8): - b_5_8 + f_5_8 <= 0
eqn_14_(5,9): - b_5_9 + f_5_9 <= 0
eqn_14_(6,0): - b_6_0 + f_6_0 <= 0
eqn_14_(6,1): - b_6_1 + f_6_1 <= 0
eqn_14_(6,2): - b_6_2 + f_6_2 <= 0
eqn_14_(6,3): - b_6_3 + f_6_3 <= 0
eqn_14_(6,4): - b_6_4 + f_6_4 <= 0
eqn_14_(6,5): - b_6_5 + f_6_5 <= 0
eqn_14_(6,6): - b_6_6 + f_6_6 <= 0
eqn_14_(6,7): - b_6_7 + f_6_7 <= 0
eqn_14_(6,8): - b_6_8 + f_6_8 <= 0
eqn_14_(6,9): - b_6_9 + f_6_9 <= 0
eqn_14_(7,0): - b_7_0 + f_7_0 <= 0
eqn_14_(7,1): - b_7_1 + f_7_1 <= 0
eqn_14_(7,2): - b_7_2 + f_7_2 <= 0
eqn_14_(7,3): - b_7_3 + f_7_3 <= 0
eqn_14_(7,4): - b_7_4 + f_7_4 <= 0
eqn_14_(7,5): - b_7_5 + f_7_5 <= 0
eqn_14_(7,6): - b_7_6 + f_7_6 <= 0
eqn_14_(7,7): - b_7_7 + f_7_7 <= 0
eqn_14_(7,8): - b_7_8 + f_7_8 <= 0
eqn_14_(7,9): - b_7_9 + f_7_9 <= 0
eqn_14_(8,0): - b_8_0 + f_8_0 <= 0
eqn_14_(8,1): - b_8_1 + f_8_1 <= 0
eqn_14_(8,2): - b_8_2 + f_8_2 <= 0
eqn_14_(8,3): - b_8_3 + f_8_3 <= 0
eqn_14_(8,4): - b_8_4 + f_8_4 <= 0
eqn_14_(8,5): - b_8_5 + f_8_5 <= 0
eqn_14_(8,6): - b_8_6 + f_8_6 <= 0
eqn_14_(8,7): - b_8_7 + f_8_7 <= 0
eqn_14_(8,8): - b_8_8 + f_8_8 <= 0
eqn_14_(8,9): - b_8_9 + f_8_9 <= 0
eqn_14_(9,0): - b_9_0 + f_9_0 <= 0
eqn_14_(9,1): - b_9_1 + f_9_1 <= 0
eqn_14_(9,2): - b_9_2 + f_9_2 <= 0
eqn_14_(9,3): - b_9_3 + f_9_3 <= 0
eqn_14_(9,4): - b_9_4 + f_9_4 <= 0
eqn_14_(9,5): - b_9_5 + f_9_5 <= 0
eqn_14_(9,6): - b_9_6 + f_9_6 <= 0
eqn_14_(9,7): - b_9_7 + f_9_7 <= 0
eqn_14_(9,8): - b_9_8 + f_9_8 <= 0
eqn_14_(9,9): - b_9_9 + f_9_9 <= 0
eqn_15: f_s_0 + f_s_1 + f_s_2 + f_s_3 + f_s_4 + f_s_5 + f_s_6 + f_s_7 + f_s_8
 + f_s_9 - f_t_0 - f_t_1 - f_t_2 - f_t_3 - f_t_4 - f_t_5 - f_t_6 - f_t_7
 - f_t_8 - f_t_9 = 0
eqn_16_(0): 0 f_0_0 - f_0_1 - f_0_2 - f_0_3 - f_0_4 - f_0_5 - f_0_6 - f_0_7
 - f_0_8 - f_0_9 + f_1_0 + f_2_0 + f_3_0 + f_4_0 + f_5_0 + f_6_0 + f_7_0
 + f_8_0 + f_9_0 + f_s_0 - f_t_0 <= 0
eqn_16_(1): f_0_1 - f_1_0 + 0 f_1_1 - f_1_2 - f_1_3 - f_1_4 - f_1_5 - f_1_6
 - f_1_7 - f_1_8 - f_1_9 + f_2_1 + f_3_1 + f_4_1 + f_5_1 + f_6_1 + f_7_1
 + f_8_1 + f_9_1 + f_s_1 - f_t_1 <= 0
eqn_16_(2): f_0_2 + f_1_2 - f_2_0 - f_2_1 + 0 f_2_2 - f_2_3 - f_2_4 - f_2_5
 - f_2_6 - f_2_7 - f_2_8 - f_2_9 + f_3_2 + f_4_2 + f_5_2 + f_6_2 + f_7_2
 + f_8_2 + f_9_2 + f_s_2 - f_t_2 <= 0
eqn_16_(3): f_0_3 + f_1_3 + f_2_3 - f_3_0 - f_3_1 - f_3_2 + 0 f_3_3 - f_3_4
 - f_3_5 - f_3_6 - f_3_7 - f_3_8 - f_3_9 + f_4_3 + f_5_3 + f_6_3 + f_7_3
 + f_8_3 + f_9_3 + f_s_3 - f_t_3 <= 0
eqn_16_(4): f_0_4 + f_1_4 + f_2_4 + f_3_4 - f_4_0 - f_4_1 - f_4_2 - f_4_3
 + 0 f_4_4 - f_4_5 - f_4_6 - f_4_7 - f_4_8 - f_4_9 + f_5_4 + f_6_4 + f_7_4
 + f_8_4 + f_9_4 + f_s_4 - f_t_4 <= 0
eqn_16_(5): f_0_5 + f_1_5 + f_2_5 + f_3_5 + f_4_5 - f_5_0 - f_5_1 - f_5_2
 - f_5_3 - f_5_4 + 0 f_5_5 - f_5_6 - f_5_7 - f_5_8 - f_5_9 + f_6_5 + f_7_5
 + f_8_5 + f_9_5 + f_s_5 - f_t_5 <= 0
eqn_16_(6): f_0_6 + f_1_6 + f_2_6 + f_3_6 + f_4_6 + f_5_6 - f_6_0 - f_6_1
 - f_6_2 - f_6_3 - f_6_4 - f_6_5 + 0 f_6_6 - f_6_7 - f_6_8 - f_6_9 + f_7_6
 + f_8_6 + f_9_6 + f_s_6 - f_t_6 <= 0
eqn_16_(7): f_0_7 + f_1_7 + f_2_7 + f_3_7 + f_4_7 + f_5_7 + f_6_7 - f_7_0
 - f_7_1 - f_7_2 - f_7_3 - f_7_4 - f_7_5 - f_7_6 + 0 f_7_7 - f_7_8 - f_7_9
 + f_8_7 + f_9_7 + f_s_7 - f_t_7 <= 0
eqn_16_(8): f_0_8 + f_1_8 + f_2_8 + f_3_8 + f_4_8 + f_5_8 + f_6_8 + f_7_8
 - f_8_0 - f_8_1 - f_8_2 - f_8_3 - f_8_4 - f_8_5 - f_8_6 - f_8_7 + 0 f_8_8
 - f_8_9 + f_9_8 + f_s_8 - f_t_8 <= 0
eqn_16_(9): f_0_9 + f_1_9 + f_2_9 + f_3_9 + f_4_9 + f_5_9 + f_6_9 + f_7_9
 + f_8_9 - f_9_0 - f_9_1 - f_9_2 - f_9_3 - f_9_4 - f_9_5 - f_9_6 - f_9_7
 - f_9_8 + 0 f_9_9 + f_s_9 - f_t_9 <= 0
eqn_17: x_0 + x_1 + x_2 + x_3 + x_4 + x_5 + x_6 + x_7 + x_8 + x_9 <= 8
eqn_18_(0): b_0_0 + b_0_1 + b_0_2 + b_0_3 + b_0_4 + b_0_5 + b_0_6 + b_0_7
 + b_0_8 + b_0_9 <= 3
eqn_18_(1): b_1_0 + b_1_1 + b_1_2 + b_1_3 + b_1_4 + b_1_5 + b_1_6 + b_1_7
 + b_1_8 + b_1_9 <= 3
eqn_18_(2): b_2_0 + b_2_1 + b_2_2 + b_2_3 + b_2_4 + b_2_5 + b_2_6 + b_2_7
 + b_2_8 + b_2_9 <= 3
eqn_18_(3): b_3_0 + b_3_1 + b_3_2 + b_3_3 + b_3_4 + b_3_5 + b_3_6 + b_3_7
 + b_3_8 + b_3_9 <= 3
eqn_18_(4): b_4_0 + b_4_1 + b_4_2 + b_4_3 + b_4_4 + b_4_5 + b_4_6 + b_4_7
 + b_4_8 + b_4_9 <= 3
eqn_18_(5): b_5_0 + b_5_1 + b_5_2 + b_5_3 + b_5_4 + b_5_5 + b_5_6 + b_5_7
 + b_5_8 + b_5_9 <= 3
eqn_18_(6): b_6_0 + b_6_1 + b_6_2 + b_6_3 + b_6_4 + b_6_5 + b_6_6 + b_6_7
 + b_6_8 + b_6_9 <= 3
eqn_18_(9): b_9_0 + b_9_1 + b_9_2 + b_9_3 + b_9_4 + b_9_5 + b_9_6 + b_9_7
 + b_9_8 + b_9_9 <= 3
eqn_1_non_edge_(0,0): e_0_0 = 0
eqn_1_non_edge_(0,3): e_0_3 = 0
eqn_1_non_edge_(0,6): e_0_6 = 0
eqn_1_non_edge_(0,7): e_0_7 = 0
eqn_1_non_edge_(0,8): e_0_8 = 0
eqn_1_non_edge_(0,9): e_0_9 = 0
eqn_1_non_edge_(1,1): e_1_1 = 0
eqn_1_non_edge_(1,5): e_1_5 = 0
eqn_1_non_edge_(1,7): e_1_7 = 0
eqn_1_non_edge_(1,8): e_1_8 = 0
eqn_1_non_edge_(2,2): e_2_2 = 0
eqn_1_non_edge_(3,0): e_3_0 = 0
eqn_1_non_edge_(3,3): e_3_3 = 0
eqn_1_non_edge_(3,4): e_3_4 = 0
eqn_1_non_edge_(3,5): e_3_5 = 0
eqn_1_non_edge_(3,7): e_3_7 = 0
eqn_1_non_edge_(4,3): e_4_3 = 0
eqn_1_non_edge_(4,4): e_4_4 = 0
eqn_1_non_edge_(4,5): e_4_5 = 0
eqn_1_non_edge_(4,6): e_4_6 = 0
eqn_1_non_edge_(4,9): e_4_9 = 0
eqn_1_non_edge_(5,1): e_5_1 = 0
eqn_1_non_edge_(5,3): e_5_3 = 0
eqn_1_non_edge_(5,4): e_5_4 = 0
eqn_1_non_edge_(5,5): e_5_5 = 0
eqn_1_non_edge_(5,6): e_5_6 = 0
eqn_1_non_edge_(5,7): e_5_7 = 0
eqn_1_non_edge_(5,9): e_5_9 = 0
eqn_1_non_edge_(6,0): e_6_0 = 0
eqn_1_non_edge_(6,4): e_6_4 = 0
eqn_1_non_edge_(6,5): e_6_5 = 0
eqn_1_non_edge_(6,6): e_6_6 = 0
eqn_1_non_edge_(6,7): e_6_7 = 0
eqn_1_non_edge_(7,0): e_7_0 = 0
eqn_1_non_edge_(7,1): e_7_1 = 0
eqn_1_non_edge_(7,3): e_7_3 = 0
eqn_1_non_edge_(7,5): e_7_5 = 0
eqn_1_non_edge_(7,6): e_7_6 = 0
eqn_1_non_edge_(7,7): e_7_7 = 0
eqn_1_non_edge_(7,9): e_7_9 = 0
eqn_1_non_edge_(8,0): e_8_0 = 0
eqn_1_non_edge_(8,1): e_8_1 = 0
eqn_1_non_edge_(8,8): e_8_8 = 0
eqn_1_non_edge_(8,9): e_8_9 = 0
eqn_1_non_edge_(9,0): e_9_0 = 0
eqn_1_non_edge_(9,4): e_9_4 = 0
eqn_1_non_edge_(9,5): e_9_5 = 0
eqn_1_non_edge_(9,7): e_9_7 = 0
eqn_1_non_edge_(9,8): e_9_8 = 0
eqn_1_non_edge_(9,9): e_9_9 = 0
eqn_3_(0): - x_0 + y_0 <= 0
eqn_3_(1): - x_1 + y_1 <= 0
eqn_3_(2): - x_2 + y_2 <= 0
eqn_3_(3): - x_3 + y_3 <= 0
eqn_3_(4): - x_4 + y_4 <= 0
eqn_3_(5): - x_5 + y_5 <= 0
eqn_3_(6): - x_6 + y_6 <= 0
eqn_3_(7): - x_7 + y_7 <= 0
eqn_3_(8): - x_8 + y_8 <= 0
eqn_3_(9): - x_9 + y_9 <= 0
eqn_4_(0,0): b_0_0 - e_0_0 <= 0
eqn_4_(0,1): b_0_1 - e_0_1 <= 0
eqn_4_(0,2): b_0_2 - e_0_2 <= 0
eqn_4_(0,3): b_0_3 - e_0_3 <= 0
eqn_4_(0,4): b_0_4 - e_0_4 <= 0
eqn_4_(0,5): b_0_5 - e_0_5 <= 0
eqn_4_(0,6): b_0_6 - e_0_6 <= 0
eqn_4_(0,7): b_0_7 - e_0_7 <= 0
eqn_4_(0,8): b_0_8 - e_0_8 <= 0
eqn_4_(0,9): b_0_9 - e_0_9 <= 0
eqn_4_(1,0): b_1_0 - e_1_0 <= 0
eqn_4_(1,1): b_1_1 - e_1_1 <= 0
eqn_4_(1,2): b_1_2 - e_1_2 <= 0
eqn_4_(1,3): b_1_3 - e_1_3 <= 0
eqn_4_(1,4): b_1_4 - e_1_4 <= 0
eqn_4_(1,5): b_1_5 - e_1_5 <= 0
eqn_4_(1,6): b_1_6 - e_1_6 <= 0
eqn_4_(1,7): b_1_7 - e_1_7 <= 0
eqn_4_(1,8): b_1_8 - e_1_8 <= 0
eqn_4_(1,9): b_1_9 - e_1_9 <= 0
eqn_4_(2,0): b_2_0 - e_2_0 <= 0
eqn_4_(2,1): b_2_1 - e_2_1 <= 0
eqn_4_(2,2): b_2_2 - e_2_2 <= 0
eqn_4_(2,3): b_2_3 - e_2_3 <= 0
eqn_4_(2,4): b_2_4 - e_2_4 <= 0
eqn_4_(2,5): b_2_5 - e_2_5 <= 0
eqn_4_(2,6): b_2_6 - e_2_6 <= 0
eqn_4_(2,7): b_2_7 - e_2_7 <= 0
eqn_4_(2,8): b_2_8 - e_2_8 <= 0
eqn_4_(2,9): b_2_9 - e_2_9 <= 0
eqn_4_(3,0): b_3_0 - e_3_0 <= 0
eqn_4_(3,1): b_3_1 - e_3_1 <= 0
eqn_4_(3,2): b_3_2 - e_3_2 <= 0
eqn_4_(3,3): b_3_3 - e_3_3 <= 0
eqn_4_(3,4): b_3_4 - e_3_4 <= 0
eqn_4_(3,5): b_3_5 - e_3_5 <= 0
eqn_4_(3,6): b_3_6 - e_3_6 <= 0
eqn_4_(3,7): b_3_7 - e_3_7 <= 0
eqn_4_(3,8): b_3_8 - e_3_8 <= 0
eqn_4_(3,9): b_3_9 - e_3_9 <= 0
eqn_4_(4,0): b_4_0 - e_4_0 <= 0
eqn_4_(4,1): b_4_1 - e_4_1 <= 0
eqn_4_(4,2): b_4_2 - e_4_2 <= 0
eqn_4_(4,3): b_4_3 - e_4_3 <= 0
eqn_4_(4,4): b_4_4 - e_4_4 <= 0
eqn_4_(4,5): b_4_5 - e_4_5 <= 0
eqn_4_(4,6): b_4_6 - e_4_6 <= 0
eqn_4_(4,7): b_4_7 - e_4_7 <= 0
eqn_4_(4,8): b_4_8 - e_4_8 <= 0
eqn_4_(4,9): b_4_9 - e_4_9 <= 0
eqn_4_(5,0): b_5_0 - e_5_0 <= 0
eqn_4_(5,1): b_5_1 - e_5_1 <= 0
eqn_4_(5,2): b_5_2 - e_5_2 <= 0
eqn_4_(5,3): b_5_3 - e_5_3 <= 0
eqn_4_(5,4): b_5_4 - e_5_4 <= 0
eqn_4_(5,5): b_5_5 - e_5_5 <= 0
eqn_4_(5,6): b_5_6 - e_5_6 <= 0
eqn_4_(5,7): b_5_7 - e_5_7 <= 0
eqn_4_(5,8): b_5_8 - e_5_8 <= 0
eqn_4_(5,9): b_5_9 - e_5_9 <= 0
eqn_4_(6,0): b_6_0 - e_6_0 <= 0
eqn_4_(6,1): b_6_1 - e_6_1 <= 0
eqn_4_(6,2): b_6_2 - e_6_2 <= 0
eqn_4_(6,3): b_6_3 - e_6_3 <= 0
eqn_4_(6,4): b_6_4 - e_6_4 <= 0
eqn_4_(6,5): b_6_5 - e_6_5 <= 0
eqn_4_(6,6): b_6_6 - e_6_6 <= 0
eqn_4_(6,7): b_6_7 - e_6_7 <= 0
eqn_4_(6,8): b_6_8 - e_6_8 <= 0
eqn_4_(6,9): b_6_9 - e_6_9 <= 0
eqn_4_(7,0): b_7_0 - e_7_0 <= 0
eqn_4_(7,1): b_7_1 - e_7_1 <= 0
eqn_4_(7,2): b_7_2 - e_7_2 <= 0
eqn_4_(7,3): b_7_3 - e_7_3 <= 0
eqn_4_(7,4): b_7_4 - e_7_4 <= 0
eqn_4_(7,5): b_7_5 - e_7_5 <= 0
eqn_4_(7,6): b_7_6 - e_7_6 <= 0
eqn_4_(7,7): b_7_7 - e_7_7 <= 0
eqn_4_(7,8): b_7_8 - e_7_8 <= 0
eqn_4_(7,9): b_7_9 - e_7_9 <= 0
eqn_4_(8,0): b_8_0 - e_8_0 <= 0
eqn_4_(8,1): b_8_1 - e_8_1 <= 0
eqn_4_(8,2): b_8_2 - e_8_2 <= 0
eqn_4_(8,3): b_8_3 - e_8_3 <= 0
eqn_4_(8,4): b_8_4 - e_8_4 <= 0
eqn_4_(8,5): b_8_5 - e_8_5 <= 0
eqn_4_(8,6): b_8_6 - e_8_6 <= 0
eqn_4_(8,7): b_8_7 - e_8_7 <= 0
eqn_4_(8,8): b_8_8 - e_8_8 <= 0
eqn_4_(8,9): b_8_9 - e_8_9 <= 0
eqn_4_(9,0): b_9_0 - e_9_0 <= 0
eqn_4_(9,1): b_9_1 - e_9_1 <= 0
eqn_4_(9,2): b_9_2 - e_9_2 <= 0
eqn_4_(9,3): b_9_3 - e_9_3 <= 0
eqn_4_(9,4): b_9_4 - e_9_4 <= 0
eqn_4_(9,5): b_9_5 - e_9_5 <= 0
eqn_4_(9,6): b_9_6 - e_9_6 <= 0
eqn_4_(9,7): b_9_7 - e_9_7 <= 0
eqn_4_(9,8): b_9_8 - e_9_8 <= 0
eqn_4_(9,9): b_9_9 - e_9_9 <= 0
eqn_5_(0,0): 0 e_0_0 = 0
eqn_5_(0,1): e_0_1 - e_1_0 = 0
eqn_5_(0,2): e_0_2 - e_2_0 = 0
eqn_5_(0,3): e_0_3 - e_3_0 = 0
eqn_5_(0,4): e_0_4 - e_4_0 = 0
eqn_5_(0,5): e_0_5 - e_5_0 = 0
eqn_5_(0,6): e_0_6 - e_6_0 = 0
eqn_5_(0,7): e_0_7 - e_7_0 = 0
eqn_5_(0,8): e_0_8 - e_8_0 = 0
eqn_5_(0,9): e_0_9 - e_9_0 = 0
eqn_5_(1,0): - e_0_1 + e_1_0 = 0
eqn_5_(1,1): 0 e_1_1 = 0
eqn_5_(1,2): e_1_2 - e_2_1 = 0
eqn_5_(1,3): e_1_3 - e_3_1 = 0
eqn_5_(1,4): e_1_4 - e_4_1 = 0
eqn_5_(1,5): e_1_5 - e_5_1 = 0
eqn_5_(1,6): e_1_6 - e_6_1 = 0
eqn_5_(1,7): e_1_7 - e_7_1 = 0
eqn_5_(1,8): e_1_8 - e_8_1 = 0
eqn_5_(1,9): e_1_9 - e_9_1 = 0
eqn_5_(2,0): - e_0_2 + e_2_0 = 0
eqn_5_(2,1): - e_1_2 + e_2_1 = 0
eqn_5_(2,2): 0 e_2_2 = 0
eqn_5_(2,3): e_2_3 - e_3_2 = 0
eqn_5_(2,4): e_2_4 - e_4_2 = 0
eqn_5_(2,5): e_2_5 - e_5_2 = 0
eqn_5_(2,6): e_2_6 - e_6_2 = 0
eqn_5_(2,7): e_2_7 - e_7_2 = 0
eqn_5_(2,8): e_2_8 - e_8_2 = 0
eqn_5_(2,9): e_2_9 - e_9_2 = 0
eqn_5_(3,0): - e_0_3 + e_3_0 = 0
eqn_5_(3,1): - e_1_3 + e_3_1 = 0
eqn_5_(3,2): - e_2_3 + e_3_2 = 0
eqn_5_(3,3): 0 e_3_3 = 0
eqn_5_(3,4): e_3_4 - e_4_3 = 0
eqn_5_(3,5): e_3_5 - e_5_3 = 0
eqn_5_(3,6): e_3_6 - e_6_3 = 0
eqn_5_(3,7): e_3_7 - e_7_3 = 0
eqn_5_(3,8): e_3_8 - e_8_3 = 0
eqn_5_(3,9): e_3_9 - e_9_3 = 0
eqn_5_(4,0): - e_0_4 + e_4_0 = 0
eqn_5_(4,1): - e_1_4 + e_4_1 = 0
eqn_5_(4,2): - e_2_4 + e_4_2 = 0
eqn_5_(4,3): - e_3_4 + e_4_3 = 0
eqn_5_(4,4): 0 e_4_4 = 0
eqn_5_(4,5): e_4_5 - e_5_4 = 0
eqn_5_(4,6): e_4_6 - e_6_4 = 0
eqn_5_(4,7): e_4_7 - e_7_4 = 0
eqn_5_(4,8): e_4_8 - e_8_4 = 0
eqn_5_(4,9): e_4_9 - e_9_4 = 0
eqn_5_(5,0): - e_0_5 + e_5_0 = 0
eqn_5_(5,1): - e_1_5 + e_5_1 = 0
eqn_5_(5,2): - e_2_5 + e_5_2 = 0
eqn_5_(5,3): - e_3_5 + e_5_3 = 0
eqn_5_(5,4): - e_4_5 + e_5_4 = 0
eqn_5_(5,5): 0 e_5_5 = 0
eqn_5_(5,6): e_5_6 - e_6_5 = 0
eqn_5_(5,7): e_5_7 - e_7_5 = 0
eqn_5_(5,8): e_5_8 - e_8_5 = 0
eqn_5_(5,9): e_5_9 - e_9_5 = 0
eqn_5_(6,0): - e_0_6 + e_6_0 = 0
eqn_5_(6,1): - e_1_6 + e_6_1 = 0
eqn_5_(6,2): - e_2_6 + e_6_2 = 0
eqn_5_(6,3): - e_3_6 + e_6_3 = 0
eqn_5_(6,4): - e_4_6 + e_6_4 = 0
eqn_5_(6,5): - e_5_6 + e_6_5 = 0
eqn_5_(6,6): 0 e_6_6 = 0
eqn_5_(6,7): e_6_7 - e_7_6 = 0
eqn_5_(6,8): e_6_8 - e_8_6 = 0
eqn_5_(6,9): e_6_9 - e_9_6 = 0
eqn_5_(7,0): - e_0_7 + e_7_0 = 0
eqn_5_(7,1): - e_1_7 + e_7_1 = 0
eqn_5_(7,2): - e_2_7 + e_7_2 = 0
eqn_5_(7,3): - e_3_7 + e_7_3 = 0
eqn_5_(7,4): - e_4_7 + e_7_4 = 0
eqn_5_(7,5): - e_5_7 + e_7_5 = 0
eqn_5_(7,6): - e_6_7 + e_7_6 = 0
eqn_5_(7,7): 0 e_7_7 = 0
eqn_5_(7,8): e_7_8 - e_8_7 = 0
eqn_5_(7,9): e_7_9 - e_9_7 = 0
eqn_5_(8,0): - e_0_8 + e_8_0 = 0
eqn_5_(8,1): - e_1_8 + e_8_1 = 0
eqn_5_(8,2): - e_2_8 + e_8_2 = 0
eqn_5_(8,3): - e_3_8 + e_8_3 = 0
eqn_5_(8,4): - e_4_8 + e_8_4 = 0
eqn_5_(8,5): - e_5_8 + e_8_5 = 0
eqn_5_(8,6): - e_6_8 + e_8_6 = 0
eqn_5_(8,7): - e_7_8 + e_8_7 = 0
eqn_5_(8,8): 0 e_8_8 = 0
eqn_5_(8,9): e_8_9 - e_9_8 = 0
eqn_5_(9,0): - e_0_9 + e_9_0 = 0
eqn_5_(9,1): - e_1_9 + e_9_1 = 0
eqn_5_(9,2): - e_2_9 + e_9_2 = 0
eqn_5_(9,3): - e_3_9 + e_9_3 = 0
eqn_5_(9,4): - e_4_9 + e_9_4 = 0
eqn_5_(9,5): - e_5_9 + e_9_5 = 0
eqn_5_(9,6): - e_6_9 + e_9_6 = 0
eqn_5_(9,7): - e_7_9 + e_9_7 = 0
eqn_5_(9,8): - e_8_9 + e_9_8 = 0
eqn_5_(9,9): 0 e_9_9 = 0
eqn_6_(0,0): 0 b_0_0 = 0
eqn_6_(0,1): b_0_1 - b_1_0 = 0
eqn_6_(0,2): b_0_2 - b_2_0 = 0
eqn_6_(0,3): b_0_3 - b_3_0 = 0
eqn_6_(0,4): b_0_4 - b_4_0 = 0
eqn_6_(0,5): b_0_5 - b_5_0 = 0
eqn_6_(0,6): b_0_6 - b_6_0 = 0
eqn_6_(0,7): b_0_7 - b_7_0 = 0
eqn_6_(0,8): b_0_8 - b_8_0 = 0
eqn_6_(0,9): b_0_9 - b_9_0 = 0
eqn_6_(1,0): - b_0_1 + b_1_0 = 0
eqn_6_(1,1): 0 b_1_1 = 0
eqn_6_(1,2): b_1_2 - b_2_1 = 0
eqn_6_(1,3): b_1_3 - b_3_1 = 0
eqn_6_(1,4): b_1_4 - b_4_1 = 0
eqn_6_(1,5): b_1_5 - b_5_1 = 0
eqn_6_(1,6): b_1_6 - b_6_1 = 0
eqn_6_(1,7): b_1_7 - b_7_1 = 0
eqn_6_(1,8): b_1_8 - b_8_1 = 0
eqn_6_(1,9): b_1_9 - b_9_1 = 0
eqn_6_(2,0): - b_0_2 + b_2_0 = 0
eqn_6_(2,1): - b_1_2 + b_2_1 = 0
eqn_6_(2,2): 0 b_2_2 = 0
eqn_6_(2,3): b_2_3 - b_3_2 = 0
eqn_6_(2,4): b_2_4 - b_4_2 = 0
eqn_6_(2,5): b_2_5 - b_5_2 = 0
eqn_6_(2,6): b_2_6 - b_6_2 = 0
eqn_6_(2,7): b_2_7 - b_7_2 = 0
eqn_6_(2,8): b_2_8 - b_8_2 = 0
eqn_6_(2,9): b_2_9 - b_9_2 = 0
eqn_6_(3,0): - b_0_3 + b_3_0 = 0
eqn_6_(3,1): - b_1_3 + b_3_1 = 0
eqn_6_(3,2): - b_2_3 + b_3_2 = 0
eqn_6_(3,3): 0 b_3_3 = 0
eqn_6_(3,4): b_3_4 - b_4_3 = 0
eqn_6_(3,5): b_3_5 - b_5_3 = 0
eqn_6_(3,6): b_3_6 - b_6_3 = 0
eqn_6_(3,7): b_3_7 - b_7_3 = 0
eqn_6_(3,8): b_3_8 - b_8_3 = 0
eqn_6_(3,9): b_3_9 - b_9_3 = 0
eqn_6_(4,0): - b_0_4 + b_4_0 = 0
eqn_6_(4,1): - b_1_4 + b_4_1 = 0
eqn_6_(4,2): - b_2_4 + b_4_2 = 0
eqn_6_(4,3): - b_3_4 + b_4_3 = 0
eqn_6_(4,4): 0 b_4_4 = 0
eqn_6_(4,5): b_4_5 - b_5_4 = 0
eqn_6_(4,6): b_4_6 - b_6_4 = 0
eqn_6_(4,7): b_4_7 - b_7_4 = 0
eqn_6_(4,8): b_4_8 - b_8_4 = 0
eqn_6_(4,9): b_4_9 - b_9_4 = 0
eqn_6_(5,0): - b_0_5 + b_5_0 = 0
eqn_6_(5,1): - b_1_5 + b_5_1 = 0
eqn_6_(5,2): - b_2_5 + b_5_2 = 0
eqn_6_(5,3): - b_3_5 + b_5_3 = 0
eqn_6_(5,4): - b_4_5 + b_5_4 = 0
eqn_6_(5,5): 0 b_5_5 = 0
eqn_6_(5,6): b_5_6 - b_6_5 = 0
eqn_6_(5,7): b_5_7 - b_7_5 = 0
eqn_6_(5,8): b_5_8 - b_8_5 = 0
eqn_6_(5,9): b_5_9 - b_9_5 = 0
eqn_6_(6,0): - b_0_6 + b_6_0 = 0
eqn_6_(6,1): - b_1_6 + b_6_1 = 0
eqn_6_(6,2): - b_2_6 + b_6_2 = 0
eqn_6_(6,3): - b_3_6 + b_6_3 = 0
eqn_6_(6,4): - b_4_6 + b_6_4 = 0
eqn_6_(6,5): - b_5_6 + b_6_5 = 0
eqn_6_(6,6): 0 b_6_6 = 0
eqn_6_(6,7): b_6_7 - b_7_6 = 0
eqn_6_(6,8): b_6_8 - b_8_6 = 0
eqn_6_(6,9): b_6_9 - b_9_6 = 0
eqn_6_(7,0): - b_0_7 + b_7_0 = 0
eqn_6_(7,1): - b_1_7 + b_7_1 = 0
eqn_6_(7,2): - b_2_7 + b_7_2 = 0
eqn_6_(7,3): - b_3_7 + b_7_3 = 0
eqn_6_(7,4): - b_4_7 + b_7_4 = 0
eqn_6_(7,5): - b_5_7 + b_7_5 = 0
eqn_6_(7,6): - b_6_7 + b_7_6 = 0
eqn_6_(7,7): 0 b_7_7 = 0
eqn_6_(7,8): b_7_8 - b_8_7 = 0
eqn_6_(7,9): b_7_9 - b_9_7 = 0
eqn_6_(8,0): - b_0_8 + b_8_0 = 0
eqn_6_(8,1): - b_1_8 + b_8_1 = 0
eqn_6_(8,2): - b_2_8 + b_8_2 = 0
eqn_6_(8,3): - b_3_8 + b_8_3 = 0
eqn_6_(8,4): - b_4_8 + b_8_4 = 0
eqn_6_(8,5): - b_5_8 + b_8_5 = 0
eqn_6_(8,6): - b_6_8 + b_8_6 = 0
eqn_6_(8,7): - b_7_8 + b_8_7 = 0
eqn_6_(8,8): 0 b_8_8 = 0
eqn_6_(8,9): b_8_9 - b_9_8 = 0
eqn_6_(9,0): - b_0_9 + b_9_0 = 0
eqn_6_(9,1): - b_1_9 + b_9_1 = 0
eqn_6_(9,2): - b_2_9 + b_9_2 = 0
eqn_6_(9,3): - b_3_9 + b_9_3 = 0
eqn_6_(9,4): - b_4_9 + b_9_4 = 0
eqn_6_(9,5): - b_5_9 + b_9_5 = 0
eqn_6_(9,6): - b_6_9 + b_9_6 = 0
eqn_6_(9,7): - b_7_9 + b_9_7 = 0
eqn_6_(9,8): - b_8_9 + b_9_8 = 0
eqn_6_(9,9): 0 b_9_9 = 0
eqn_7_(0,0): e_0_0 - x_0 <= 0
eqn_7_(0,1): e_0_1 - 0.5 x_0 - 0.5 x_1 <= 0
eqn_7_(0,2): e_0_2 - 0.5 x_0 - 0.5 x_2 <= 0
eqn_7_(0,3): e_0_3 - 0.5 x_0 - 0.5 x_3 <= 0
eqn_7_(0,4): e_0_4 - 0.5 x_0 - 0.5 x_4 <= 0
eqn_7_(0,5): e_0_5 - 0.5 x_0 - 0.5 x_5 <= 0
eqn_7_(0,6): e_0_6 - 0.5 x_0 - 0.5 x_6 <= 0
eqn_7_(0,7): e_0_7 - 0.5 x_0 - 0.5 x_7 <= 0
eqn_7_(0,8): e_0_8 - 0.5 x_0 - 0.5 x_8 <= 0
eqn_7_(0,9): e_0_9 - 0.5 x_0 - 0.5 x_9 <= 0
eqn_7_(1,0): e_1_0 - 0.5 x_0 - 0.5 x_1 <= 0
eqn_7_(1,1): e_1_1 - x_1 <= 0
eqn_7_(1,2): e_1_2 - 0.5 x_1 - 0.5 x_2 <= 0
eqn_7_(1,3): e_1_3 - 0.5 x_1 - 0.5 x_3 <= 0
eqn_7_(1,4): e_1_4 - 0.5 x_1 - 0.5 x_4 <= 0
eqn_7_(1,5): e_1_5 - 0.5 x_1 - 0.5 x_5 <= 0
eqn_7_(1,6): e_1_6 - 0.5 x_1 - 0.5 x_6 <= 0
eqn_7_(1,7): e_1_7 - 0.5 x_1 - 0.5 x_7 <= 0
eqn_7_(1,8): e_1_8 - 0.5 x_1 - 0.5 x_8 <= 0
eqn_7_(1,9): e_1_9 - 0.5 x_1 - 0.5 x_9 <= 0
eqn_7_(2,0): e_2_0 - 0.5 x_0 - 0.5 x_2 <= 0
eqn_7_(2,1): e_2_1 - 0.5 x_1 - 0.5 x_2 <= 0
eqn_7_(2,2): e_2_2 - x_2 <= 0
eqn_7_(2,3): e_2_3 - 0.5 x_2 - 0.5 x_3 <= 0
eqn_7_(2,4): e_2_4 - 0.5 x_2 - 0.5 x_4 <= 0
eqn_7_(2,5): e_2_5 - 0.5 x_2 - 0.5 x_5 <= 0
eqn_7_(2,6): e_2_6 - 0.5 x_2 - 0.5 x_6 <= 0
eqn_7_(2,7): e_2_7 - 0.5 x_2 - 0.5 x_7 <= 0
eqn_7_(2,8): e_2_8 - 0.5 x_2 - 0.5 x_8 <= 0
eqn_7_(2,9): e_2_9 - 0.5 x_2 - 0.5 x_9 <= 0
eqn_7_(3,0): e_3_0 - 0.5 x_0 - 0.5 x_3 <= 0
eqn_7_(3,1): e_3_1 - 0.5 x_1 - 0.5 x_3 <= 0
eqn_7_(3,2): e_3_2 - 0.5 x_2 - 0.5 x_3 <= 0
eqn_7_(3,3): e_3_3 - x_3 <= 0
eqn_7_(3,4): e_3_4 - 0.5 x_3 - 0.5 x_4 <= 0
eqn_7_(3,5): e_3_5 - 0.5 x_3 - 0.5 x_5 <= 0
eqn_7_(3,6): e_3_6 - 0.5 x_3 - 0.5 x_6 <= 0
eqn_7_(3,7): e_3_7 - 0.5 x_3 - 0.5 x_7 <= 0
eqn_7_(3,8): e_3_8 - 0.5 x_3 - 0.5 x_8 <= 0
eqn_7_(3,9): e_3_9 - 0.5 x_3 - 0.5 x_9 <= 0
eqn_7_(4,0): e_4_0 - 0.5 x_0 - 0.5 x_4 <= 0
eqn_7_(4,1): e_4_1 - 0.5 x_1 - 0.5 x_4 <= 0
eqn_7_(4,2): e_4_2 - 0.5 x_2 - 0.5 x_4 <= 0
eqn_7_(4,3): e_4_3 - 0.5 x_3 - 0.5 x_4 <= 0
eqn_7_(4,4): e_4_4 - x_4 <= 0
eqn_7_(4,5): e_4_5 - 0.5 x_4 - 0.5 x_5 <= 0
eqn_7_(4,6): e_4_6 - 0.5 x_4 - 0.5 x_6 <= 0
eqn_7_(4,7): e_4_7 - 0.5 x_4 - 0.5 x_7 <= 0
eqn_7_(4,8): e_4_8 - 0.5 x_4 - 0.5 x_8 <= 0
eqn_7_(4,9): e_4_9 - 0.5 x_4 - 0.5 x_9 <= 0
eqn_7_(5,0): e_5_0 - 0.5 x_0 - 0.5 x_5 <= 0
eqn_7_(5,1): e_5_1 - 0.5 x_1 - 0.5 x_5 <= 0
eqn_7_(5,2): e_5_2 - 0.5 x_2 - 0.5 x_5 <= 0
eqn_7_(5,3): e_5_3 - 0.5 x_3 - 0.5 x_5 <= 0
eqn_7_(5,4): e_5_4 - 0.5 x_4 - 0.5 x_5 <= 0
eqn_7_(5,5): e_5_5 - x_5 <= 0
eqn_7_(5,6): e_5_6 - 0.5 x_5 - 0.5 x_6 <= 0
eqn_7_(5,7): e_5_7 - 0.5 x_5 - 0.5 x_7 <= 0
eqn_7_(5,8): e_5_8 - 0.5 x_5 - 0.5 x_8 <= 0
eqn_7_(5,9): e_5_9 - 0.5 x_5 - 0.5 x_9 <= 0
eqn_7_(6,0): e_6_0 - 0.5 x_0 - 0.5 x_6 <= 0
eqn_7_(6,1): e_6_1 - 0.5 x_1 - 0.5 x_6 <= 0
eqn_7_(6,2): e_6_2 - 0.5 x_2 - 0.5 x_6 <= 0
eqn_7_(6,3): e_6_3 - 0.5 x_3 - 0.5 x_6 <= 0
eqn_7_(6,4): e_6_4 - 0.5 x_4 - 0.5 x_6 <= 0
eqn_7_(6,5): e_6_5 - 0.5 x_5 - 0.5 x_6 <= 0
eqn_7_(6,6): e_6_6 - x_6 <= 0
eqn_7_(6,7): e_6_7 - 0.5 x_6 - 0.5 x_7 <= 0
eqn_7_(6,8): e_6_8 - 0.5 x_6 - 0.5 x_8 <= 0
eqn_7_(6,9): e_6_9 - 0.5 x_6 - 0.5 x_9 <= 0
eqn_7_(7,0): e_7_0 - 0.5 x_0 - 0.5 x_7 <= 0
eqn_7_(7,1): e_7_1 - 0.5 x_1 - 0.5 x_7 <= 0
eqn_7_(7,2): e_7_2 - 0.5 x_2 - 0.5 x_7 <= 0
eqn_7_(7,3): e_7_3 - 0.5 x_3 - 0.5 x_7 <= 0
eqn_7_(7,4): e_7_4 - 0.5 x_4 - 0.5 x_7 <= 0
eqn_7_(7,5): e_7_5 - 0.5 x_5 - 0.5 x_7 <= 0
eqn_7_(7,6): e_7_6 - 0.5 x_6 - 0.5 x_7 <= 0
eqn_7_(7,7): e_7_7 - x_7 <= 0
eqn_7_(7,8): e_7_8 - 0.5 x_7 - 0.5 x_8 <= 0
eqn_7_(7,9): e_7_9 - 0.5 x_7 - 0.5 x_9 <= 0
eqn_7_(8,0): e_8_0 - 0.5 x_0 - 0.5 x_8 <= 0
eqn_7_(8,1): e_8_1 - 0.5 x_1 - 0.5 x_8 <= 0
eqn_7_(8,2): e_8_2 - 0.5 x_2 - 0.5 x_8 <= 0
eqn_7_(8,3): e_8_3 - 0.5 x_3 - 0.5 x_8 <= 0
eqn_7_(8,4): e_8_4 - 0.5 x_4 - 0.5 x_8 <= 0
eqn_7_(8,5): e_8_5 - 0.5 x_5 - 0.5 x_8 <= 0
eqn_7_(8,6): e_8_6 - 0.5 x_6 - 0.5 x_8 <= 0
eqn_7_(8,7): e_8_7 - 0.5 x_7 - 0.5 x_8 <= 0
eqn_7_(8,8): e_8_8 - x_8 <= 0
eqn_7_(8,9): e_8_9 - 0.5 x_8 - 0.5 x_9 <= 0
eqn_7_(9,0): e_9_0 - 0.5 x_0 - 0.5 x_9 <= 0
eqn_7_(9,1): e_9_1 - 0.5 x_1 - 0.5 x_9 <= 0
eqn_7_(9,2): e_9_2 - 0.5 x_2 - 0.5 x_9 <= 0
eqn_7_(9,3): e_9_3 - 0.5 x_3 - 0.5 x_9 <= 0
eqn_7_(9,4): e_9_4 - 0.5 x_4 - 0.5 x_9 <= 0
eqn_7_(9,5): e_9_5 - 0.5 x_5 - 0.5 x_9 <= 0
eqn_7_(9,6): e_9_6 - 0.5 x_6 - 0.5 x_9 <= 0
eqn_7_(9,7): e_9_7 - 0.5 x_7 - 0.5 x_9 <= 0
eqn_7_(9,8): e_9_8 - 0.5 x_8 - 0.5 x_9 <= 0
eqn_7_(9,9): e_9_9 - x_9 <= 0
eqn_8_(0,0): b_0_0 - y_0 <= 0
eqn_8_(0,1): b_0_1 - 0.5 y_0 - 0.5 y_1 <= 0
eqn_8_(0,2): b_0_2 - 0.5 y_0 - 0.5 y_2 <= 0
eqn_8_(0,3): b_0_3 - 0.5 y_0 - 0.5 y_3 <= 0
eqn_8_(0,4): b_0_4 - 0.5 y_0 - 0.5 y_4 <= 0
eqn_8_(0,5): b_0_5 - 0.5 y_0 - 0.5 y_5 <= 0
eqn_8_(0,6): b_0_6 - 0.5 y_0 - 0.5 y_6 <= 0
eqn_8_(0,7): b_0_7 - 0.5 y_0 - 0.5 y_7 <= 0
eqn_8_(0,8): b_0_8 - 0.5 y_0 - 0.5 y_8 <= 0
eqn_8_(0,9): b_0_9 - 0.5 y_0 - 0.5 y_9 <= 0
eqn_8_(1,0): b_1_0 - 0.5 y_0 - 0.5 y_1 <= 0
eqn_8_(1,1): b_1_1 - y_1 <= 0
eqn_8_(1,2): b_1_2 - 0.5 y_1 - 0.5 y_2 <= 0
eqn_8_(1,3): b_1_3 - 0.5 y_1 - 0.5 y_3 <= 0
eqn_8_(1,4): b_1_4 - 0.5 y_1 - 0.5 y_4 <= 0
eqn_8_(1,5): b_1_5 - 0.5 y_1 - 0.5 y_5 <= 0
eqn_8_(1,6): b_1_6 - 0.5 y_1 - 0.5 y_6 <= 0
eqn_8_(1,7): b_1_7 - 0.5 y_1 - 0.5 y_7 <= 0
eqn_8_(1,8): b_1_8 - 0.5 y_1 - 0.5 y_8 <= 0
eqn_8_(1,9): b_1_9 - 0.5 y_1 - 0.5 y_9 <= 0
eqn_8_(2,0): b_2_0 - 0.5 y_0 - 0.5 y_2 <= 0
eqn_8_(2,1): b_2_1 - 0.5 y_1 - 0.5 y_2 <= 0
eqn_8_(2,2): b_2_2 - y_2 <= 0
eqn_8_(2,3): b_2_3 - 0.5 y_2 - 0.5 y_3 <= 0
eqn_8_(2,4): b_2_4 - 0.5 y_2 - 0.5 y_4 <= 0
eqn_8_(2,5): b_2_5 - 0.5 y_2 - 0.5 y_5 <= 0
eqn_8_(2,6): b_2_6 - 0.5 y_2 - 0.5 y_6 <= 0
eqn_8_(2,7): b_2_7 - 0.5 y_2 - 0.5 y_7 <= 0
eqn_8_(2,8): b_2_8 - 0.5 y_2 - 0.5 y_8 <= 0
eqn_8_(2,9): b_2_9 - 0.5 y_2 - 0.5 y_9 <= 0
eqn_8_(3,0): b_3_0 - 0.5 y_0 - 0.5 y_3 <= 0
eqn_8_(3,1): b_3_1 - 0.5 y_1 - 0.5 y_3 <= 0
eqn_8_(3,2): b_3_2 - 0.5 y_2 - 0.5 y_3 <= 0
eqn_8_(3,3): b_3_3 - y_3 <= 0
eqn_8_(3,4): b_3_4 - 0.5 y_3 - 0.5 y_4 <= 0
eqn_8_(3,5): b_3_5 - 0.5 y_3 - 0.5 y_5 <= 0
eqn_8_(3,6): b_3_6 - 0.5 y_3 - 0.5 y_6 <= 0
eqn_8_(3,7): b_3_7 - 0.5 y_3 - 0.5 y_7 <= 0
eqn_8_(3,8): b_3_8 - 0.5 y_3 - 0.5 y_8 <= 0
eqn_8_(3,9): b_3_9 - 0.5 y_3 - 0.5 y_9 <= 0
eqn_8_(4,0): b_4_0 - 0.5 y_0 - 0.5 y_4 <= 0
eqn_8_(4,1): b_4_1 - 0.5 y_1 - 0.5 y_4 <= 0
eqn_8_(4,2): b_4_2 - 0.5 y_2 - 0.5 y_4 <= 0
eqn_8_(4,3): b_4_3 - 0.5 y_3 - 0.5 y_4 <= 0
eqn_8_(4,4): b_4_4 - y_4 <= 0
eqn_8_(4,5): b_4_5 - 0.5 y_4 - 0.5 y_5 <= 0
eqn_8_(4,6): b_4_6 - 0.5 y_4 - 0.5 y_6 <= 0
eqn_8_(4,7): b_4_7 - 0.5 y_4 - 0.5 y_7 <= 0
eqn_8_(4,8): b_4_8 - 0.5 y_4 - 0.5 y_8 <= 0
eqn_8_(4,9): b_4_9 - 0.5 y_4 - 0.5 y_9 <= 0
eqn_8_(5,0): b_5_0 - 0.5 y_0 - 0.5 y_5 <= 0
eqn_8_(5,1): b_5_1 - 0.5 y_1 - 0.5 y_5 <= 0
eqn_8_(5,2): b_5_2 - 0.5 y_2 - 0.5 y_5 <= 0
eqn_8_(5,3): b_5_3 - 0.5 y_3 - 0.5 y_5 <= 0
eqn_8_(5,4): b_5_4 - 0.5 y_4 - 0.5 y_5 <= 0
eqn_8_(5,5): b_5_5 - y_5 <= 0
eqn_8_(5,6): b_5_6 - 0.5 y_5 - 0.5 y_6 <= 0
eqn_8_(5,7): b_5_7 - 0.5 y_5 - 0.5 y_7 <= 0
eqn_8_(5,8): b_5_8 - 0.5 y_5 - 0.5 y_8 <= 0
eqn_8_(5,9): b_5_9 - 0.5 y_5 - 0.5 y_9 <= 0
eqn_8_(6,0): b_6_0 - 0.5 y_0 - 0.5 y_6 <= 0
eqn_8_(6,1): b_6_1 - 0.5 y_1 - 0.5 y_6 <= 0
eqn_8_(6,2): b_6_2 - 0.5 y_2 - 0.5 y_6 <= 0
eqn_8_(6,3): b_6_3 - 0.5 y_3 - 0.5 y_6 <= 0
eqn_8_(6,4): b_6_4 - 0.5 y_4 - 0.5 y_6 <= 0
eqn_8_(6,5): b_6_5 - 0.5 y_5 - 0.5 y_6 <= 0
eqn_8_(6,6): b_6_6 - y_6 <= 0
eqn_8_(6,7): b_6_7 - 0.5 y_6 - 0.5 y_7 <= 0
eqn_8_(6,8): b_6_8 - 0.5 y_6 - 0.5 y_8 <= 0
eqn_8_(6,9): b_6_9 - 0.5 y_6 - 0.5 y_9 <= 0
eqn_8_(7,0): b_7_0 - 0.5 y_0 - 0.5 y_7 <= 0
eqn_8_(7,1): b_7_1 - 0.5 y_1 - 0.5 y_7 <= 0
eqn_8_(7,2): b_7_2 - 0.5 y_2 - 0.5 y_7 <= 0
eqn_8_(7,3): b_7_3 - 0.5 y_3 - 0.5 y_7 <= 0
eqn_8_(7,4): b_7_4 - 0.5 y_4 - 0.5 y_7 <= 0
eqn_8_(7,5): b_7_5 - 0.5 y_5 - 0.5 y_7 <= 0
eqn_8_(7,6): b_7_6 - 0.5 y_6 - 0.5 y_7 <= 0
eqn_8_(7,7): b_7_7 - y_7 <= 0
eqn_8_(7,8): b_7_8 - 0.5 y_7 - 0.5 y_8 <= 0
eqn_8_(7,9): b_7_9 - 0.5 y_7 - 0.5 y_9 <= 0
eqn_8_(8,0): b_8_0 - 0.5 y_0 - 0.5 y_8 <= 0
eqn_8_(8,1): b_8_1 - 0.5 y_1 - 0.5 y_8 <= 0
eqn_8_(8,2): b_8_2 - 0.5 y_2 - 0.5 y_8 <= 0
eqn_8_(8,3): b_8_3 - 0.5 y_3 - 0.5 y_8 <= 0
eqn_8_(8,4): b_8_4 - 0.5 y_4 - 0.5 y_8 <= 0
eqn_8_(8,5): b_8_5 - 0.5 y_5 - 0.5 y_8 <= 0
eqn_8_(8,6): b_8_6 - 0.5 y_6 - 0.5 y_8 <= 0
eqn_8_(8,7): b_8_7 - 0.5 y_7 - 0.5 y_8 <= 0
eqn_8_(8,8): b_8_8 - y_8 <= 0
eqn_8_(8,9): b_8_9 - 0.5 y_8 - 0.5 y_9 <= 0
eqn_8_(9,0): b_9_0 - 0.5 y_0 - 0.5 y_9 <= 0
eqn_8_(9,1): b_9_1 - 0.5 y_1 - 0.5 y_9 <= 0
eqn_8_(9,2): b_9_2 - 0.5 y_2 - 0.5 y_9 <= 0
eqn_8_(9,3): b_9_3 - 0.5 y_3 - 0.5 y_9 <= 0
eqn_8_(9,4): b_9_4 - 0.5 y_4 - 0.5 y_9 <= 0
eqn_8_(9,5): b_9_5 - 0.5 y_5 - 0.5 y_9 <= 0
eqn_8_(9,6): b_9_6 - 0.5 y_6 - 0.5 y_9 <= 0
eqn_8_(9,7): b_9_7 - 0.5 y_7 - 0.5 y_9 <= 0
eqn_8_(9,8): b_9_8 - 0.5 y_8 - 0.5 y_9 <= 0
eqn_8_(9,9): b_9_9 - y_9 <= 0
eqn_9_(0): y_2 + y_3 >= 1
eqn_9_(1): y_1 + y_4 + y_9 >= 1
eqn_9_(10): y_0 + y_8 + y_9 >= 1
eqn_9_(11): y_0 + y_1 + y_9 >= 1
eqn_9_(12): y_1 + y_3 + y_9 >= 1
eqn_9_(2): y_7 >= 1
eqn_9_(3): y_3 >= 1
eqn_9_(4): y_7 + y_8 >= 1
eqn_9_(5): y_2 >= 1
eqn_9_(6): y_5 + y_6 + y_8 >= 1
eqn_9_(7): y_0 + y_7 + y_9 >= 1
eqn_9_(8): y_1 + y_4 + y_9 >= 1
eqn_9_(9): y_5 >= 1
Bounds
__dummy = 0
b_0_0 <= 1
b_0_1 <= 1
b_0_2 <= 1
b_0_3 <= 1
b_0_4 <= 1
b_0_5 <= 1
b_0_6 <= 1
b_0_7 <= 1
b_0_8 <= 1
b_0_9 <= 1
b_1_0 <= 1
b_1_1 <= 1
b_1_2 <= 1
b_1_3 <= 1
b_1_4 <= 1
b_1_5 <= 1
b_1_6 <= 1
b_1_7 <= 1
b_1_8 <= 1
b_1_9 <= 1
b_2_0 <= 1
b_2_1 <= 1
b_2_2 <= 1
b_2_3 <= 1
b_2_4 <= 1
b_2_5 <= 1
b_2_6 <= 1
b_2_7 <= 1
b_2_8 <= 1
b_2_9 <= 1
b_3_0 <= 1
b_3_1 <= 1
b_3_2 <= 1
b_3_3 <= 1
b_3_4 <= 1
b_3_5 <= 1
b_3_6 <= 1
b_3_7 <= 1
b_3_8 <= 1
b_3_9 <= 1
b_4_0 <= 1
b_4_1 <= 1
b_4_2 <= 1
b_4_3 <= 1
b_4_4 <= 1
b_4_5 <= 1
b_4_6 <= 1
b_4_7 <= 1
b_4_8 <= 1
b_4_9 <= 1
b_5_0 <= 1
b_5_1 <= 1
b_5_2 <= 1
b_5_3 <= 1
b_5_4 <= 1
b_5_5 <= 1
b_5_6 <= 1
b_5_7 <= 1
b_5_8 <= 1
b_5_9 <= 1
b_6_0 <= 1
b_6_1 <= 1
b_6_2 <= 1
b_6_3 <= 1
b_6_4 <= 1
b_6_5 <= 1
b_6_6 <= 1
b_6_7 <= 1
b_6_8 <= 1
b_6_9 <= 1
b_7_0 <= 1
b_7_1 <= 1
b_7_2 <= 1
b_7_3 <= 1
b_7_4 <= 1
b_7_5 <= 1
b_7_6 <= 1
b_7_7 <= 1
b_7_8 <= 1
b_7_9 <= 1
b_8_0 <= 1
b_8_1 <= 1
b_8_2 <= 1
b_8_3 <= 1
b_8_4 <= 1
b_8_5 <= 1
b_8_6 <= 1
b_8_7 <= 1
b_8_8 <= 1
b_8_9 <= 1
b_9_0 <= 1
b_9_1 <= 1
b_9_2 <= 1
b_9_3 <= 1
b_9_4 <= 1
b_9_5 <= 1
b_9_6 <= 1
b_9_7 <= 1
b_9_8 <= 1
b_9_9 <= 1
e_0_0 <= 1
e_0_1 <= 1
e_0_2 <= 1
e_0_3 <= 1
e_0_4 <= 1
e_0_5 <= 1
e_0_6 <= 1
e_0_7 <= 1
e_0_8 <= 1
e_0_9 <= 1
e_1_0 <= 1
e_1_1 <= 1
e_1_2 <= 1
e_1_3 <= 1
e_1_4 <= 1
e_1_5 <= 1
e_1_6 <= 1
e_1_7 <= 1
e_1_8 <= 1
e_1_9 <= 1
e_2_0 <= 1
e_2_1 <= 1
e_2_2 <= 1
e_2_3 <= 1
e_2_4 <= 1
e_2_5 <= 1
e_2_6 <= 1
e_2_7 <= 1
e_2_8 <= 1
e_2_9 <= 1
e_3_0 <= 1
e_3_1 <= 1
e_3_2 <= 1
e_3_3 <= 1
e_3_4 <= 1
e_3_5 <= 1
e_3_6 <= 1
e_3_7 <= 1
e_3_8 <= 1
e_3_9 <= 1
e_4_0 <= 1
e_4_1 <= 1
e_4_2 <= 1
e_4_3 <= 1
e_4_4 <= 1
e_4_5 <= 1
e_4_6 <= 1
e_4_7 <= 1
e_4_8 <= 1
e_4_9 <= 1
e_5_0 <= 1
e_5_1 <= 1
e_5_2 <= 1
e_5_3 <= 1
e_5_4 <= 1
e_5_5 <= 1
e_5_6 <= 1
e_5_7 <= 1
e_5_8 <= 1
e_5_9 <= 1
e_6_0 <= 1
e_6_1 <= 1
e_6_2 <= 1
e_6_3 <= 1
e_6_4 <= 1
e_6_5 <= 1
e_6_6 <= 1
e_6_7 <= 1
e_6_8 <= 1
e_6_9 <= 1
e_7_0 <= 1
e_7_1 <= 1
e_7_2 <= 1
e_7_3 <= 1
e_7_4 <= 1
e_7_5 <= 1
e_7_6 <= 1
e_7_7 <= 1
e_7_8 <= 1
e_7_9 <= 1
e_8_0 <= 1
e_8_1 <= 1
e_8_2 <= 1
e_8_3 <= 1
e_8_4 <= 1
e_8_5 <= 1
e_8_6 <= 1
e_8_7 <= 1
e_8_8 <= 1
e_8_9 <= 1
e_9_0 <= 1
e_9_1 <= 1
e_9_2 <= 1
e_9_3 <= 1
e_9_4 <= 1
e_9_5 <= 1
e_9_6 <= 1
e_9_7 <= 1
e_9_8 <= 1
e_9_9 <= 1
e_wt_0 free
e_wt_1 free
e_wt_2 free
e_wt_3 free
e_wt_4 free
e_wt_5 free
e_wt_6 free
e_wt_7 free
e_wt_8 free
e_wt_9 free
f_s_0 free
f_s_1 free
f_s_2 free
f_s_3 free
f_s_4 free
f_s_5 free
f_s_6 free
f_s_7 free
f_s_8 free
f_s_9 free
f_t_0 <= 1
f_t_1 <= 1
f_t_2 <= 1
f_t_3 <= 1
f_t_4 <= 1
f_t_5 <= 1
f_t_6 <= 1
f_t_7 <= 1
f_t_8 <= 1
f_t_9 <= 1
x_0 <= 1
x_1 <= 1
x_2 <= 1
x_3 <= 1
x_4 <= 1
x_5 <= 1
x_6 <= 1
x_7 <= 1
x_8 <= 1
x_9 <= 1
End
